%mem=5000000
%chk=filename
# mp2/6-31g* scf=direct

 cation: he

1 2
he



--link1--
%mem=5000000
%chk=filename
# mp2/6-31g* scf=direct

 cation: ne

1 2
ne



--link1--
%mem=5000000
%chk=filename
# mp2/6-31g* scf=direct

 cation: ar

1 2
ar



--link1--
%mem=5000000
%chk=filename
# mp2/6-31g* scf=direct guess=alter

 cation: BF3+  C2v 2-B2  mp2(full)/6-31G* geom
alter B 15,16

1,2
B
F,1,rf1
F,1,rf2,2,af2
F,1,rf2,2,af2,3,180.,0

rf1=1.72487052
rf2=1.25866836
af2=105.39286692




15 16

--link1--
%mem=5000000
%chk=filename
# mp2/6-31g* scf=direct

 cation: BCl3+ C2v   C2v  mp2(full)/6-31G* geom

1,2
B,0.,0.,0.1889504232
Cl,0.,0.,1.8495370995
Cl,0.,-1.3380891405,-0.9525553767
Cl,0.,1.3380891405,-0.9525553767



--link1--
%mem=5000000
%chk=filename
# mp2/6-31g* scf=direct
 
 cation: B2F4+ D2d mp2(full)/6-31G*  MP2=-447.8012874

1 2
b1
b2 b1 rb2
f1 b2 rf1 b1 af1
f2 b2 rf1 b1 af1 f1 180.0
f3 b1 rf1 b2 af1 f1 -90.0
f4 b1 rf1 b2 af1 f3 180.0

 rb2=2.0381236
 rf1=1.27804915
 af1=110.37131933



--link1--
%mem=5000000
%chk=filename
# mp2/6-31g* scf=direct

 cation: CO2+ D*H      mp2(full) geom

1,2
C,0.,0.,0.
O,0.,0.,1.173445818
O,0.,0.,-1.173445818



--link1--
%mem=5000000
%chk=filename
# mp2/6-31g* scf=direct

 cation: CF2+  mp2(full) geom

1,2
C,0.,0.,0.4268502944
F,0.,1.090296739,-0.1422834315
F,0.,-1.090296739,-0.1422834315



--link1--
%mem=5000000
%chk=filename
# mp2/6-31g* scf=direct

 cation: ocs+  mp2(full)/6-31G* geom 

1,2
O,0.,0.,-1.7223996133
C,0.,0.,-0.5965270391
S,0.,0.,1.0848974463



--link1--
%mem=5000000
%chk=filename
# mp2/6-31g* scf=direct

  cation: CS2+ D*h   mp2(full)/6-31G* geom

1,2
S,0.,0.,1.5450079258
C,0.,0.,0.
S,0.,0.,-1.5450079258



--link1--
%mem=5000000
%chk=filename
# mp2/6-31g* scf=direct

  cation: CH2+   mp2(full)/6-31G* geom

1,2
C,0.,0.,0.0939081204
H,0.,1.0233167222,-0.2817243612
H,0.,-1.0233167222,-0.2817243612



--link1--
%mem=5000000
%chk=filename
# mp2/6-31g* scf=direct

 cation: CH3+  D3h  mp2(full)/6-31G* geom

1,1
C,0.,0.,0.
H,0.,1.0882761766,0.
H,0.9424748153,-0.5441380883,0.
H,-0.9424748153,-0.5441380883,0.



--link1--
%mem=5000000
%chk=filename
# mp2/6-31g* scf=direct

 cation: C2H5+ C2v (nonclassical bridged structure) mp2(full)/6-31G* geom

1,1
C,0.,0.6901956019,-0.0624748718
C,0.,-0.6901956019,-0.0624748718
H,0.,0.,1.0446904022
H,0.9357013131,1.2448265409,-0.0737479852
H,-0.9357013131,1.2448265409,-0.0737479852
H,-0.9357013131,-1.2448265409,-0.0737479852
H,0.9357013131,-1.2448265409,-0.0737479852



--link1--
%mem=5000000
%chk=filename
# mp2/6-31g* scf=direct

 cation: C3H4+ (cyclopropenyl cation) C2v mp2(full)/6-31G* geom

1,2
C,0.,0.,0.8033871929
C,0.,-0.6829660176,-0.4725424374
C,0.,0.6829660176,-0.4725424374
H,0.900707184,0.,1.4551498694
H,-0.900707184,0.,1.4551498694
H,0.,-1.6126400929,-1.0300568236
H,0.,1.6126400929,-1.0300568236



--link1--
%mem=5000000
%chk=filename
# mp2/6-31g* scf=direct

 cation: C3H4+ (twisted structure)   mp2(full)/6-31G* geom 

1,2
C
X,1,1.
C,1,rc2,2,ac2
C,1,rc2,2,ac2,3,180.,0
H,3,rh1,1,ah1,2,th1,0
H,3,rh2,1,ah2,5,th2,0
H,4,rh1,1,ah1,2,th1,0
H,4,rh2,1,ah2,7,th2,0

rc2=1.31169643
ac2=90.00
rh1=1.09192529
ah1=121.04440669
th1=-25.51889885
rh2=1.09192318
ah2=121.04811757
th2=180.0



--link1--
%mem=5000000
%chk=filename
# mp2/6-31g* scf=direct

 cation: sec-C3H7+   mp2(full)/6-31g* geom  mp2=-117.7606481

 1 1
 C,0,0.,0.,0.4623864109
 H,0,0.,0.,1.5550871402
 C,0,0.0180818843,-1.2772433174,-0.1962994228
 C,0,-0.0180818843,1.2772433174,-0.1962994228
 H,0,-1.0461035533,-1.5947331891,-0.0724728728
 H,0,1.0461035533,1.5947331891,-0.0724728728
 H,0,0.2356114707,-1.2416249646,-1.2631239979
 H,0,-0.2356114707,1.2416249646,-1.2631239979
 H,0,0.5861793836,-2.0370119226,0.3486906044
 H,0,-0.5861793836,2.0370119226,0.3486906044



--link1--
%mem=5000000
%chk=filename
# mp2/6-31g* scf=direct guess=alter

 cation: C6H6+  2B2g (compressed structure) mp2(full)/6-31G* geom
alter B 20,21

1 2
x1
x2 x1 rx2
x3 x1 1.0 x2 90.0
x4 x2 1.0 x1 90.0 x3 0.0
c1 x1 rc1 x3 90.0 x2 180.0
c2 x2 rc1 x4 90.0 x1 180.0
c3 x1 rc3 x3 90.0 x2 -90.0
c4 x1 rc3 x3 90.0 x2 90.0
c5 x2 rc3 x4 90.0 x1 90.0
c6 x2 rc3 x4 90.0 x1 -90.0
x5 c1 1.0 x1 90.0 x3 0.0
x6 c2 1.0 x2 90.0 x4 0.0
h1 c1 rh1 x5 90.0 x1 180.0
h2 c2 rh1 x6 90.0 x2 180.0
h3 c3 rh3 c1 ah3 c4 180.0
h4 c4 rh3 c1 ah3 c3 180.0
h5 c5 rh3 c2 ah3 c6 180.0
h6 c6 rh3 c2 ah3 c5 180.0

 rx2=1.37356769
 rc1=0.69395173
 rc3=1.2465962
 rh1=1.08721462
 rh3=1.08541926
 ah3=119.58601589




20 21

--link1--
%mem=9000000
%chk=g2tolphanb3g3
# mp2/6-31g* scf=direct

 cation: C6H5-CH3(+). Toluene cation. Cs (Plane of ring is symmetry plane). 
 mp2(full)/6-31G* geom mp2 = -270.343138. (HF = -269.471083).
S**2 = 0.8596, after = 0.7553. (S**2,1) = 0.8144.
 
1,2
C          -0.029360   -1.876039    0.000000
C           0.000000    0.910358    0.000000
C           1.211105    0.136207    0.000000
C          -1.242714    0.235177    0.000000
C          -1.276106   -1.139100    0.000000
C           1.205175   -1.222169    0.000000
H           2.158718    0.671156    0.000000
H          -2.166653    0.805724    0.000000
H          -2.212343   -1.688868    0.000000
H           2.126599   -1.794367    0.000000
H          -0.066116   -2.962900    0.000000
C           0.091089    2.392925    0.000000
H          -0.892442    2.863214    0.000000
H           0.648550    2.740942    0.878940
H           0.648550    2.740942   -0.878940



--link1--
%mem=5000000
%chk=filename
# mp2/6-31g* scf=direct

  cation: CN+   mp2(full)/6-31G* geom

1,1
C,0.,0.,-0.6573268566
N,0.,0.,0.5634230199



--link1--
%mem=5000000
%chk=filename
# mp2/6-31g* scf=direct

  cation: HCO+   mp2(full)/6-31G* geom

1,1
C,0.,0.,-0.5299765863
O,0.,0.,0.6005650635
H,0.,0.,-1.6246609903



--link1--
%mem=5000000
%chk=filename
# mp2/6-31g* scf=direct

 cation: CH2OH+  mp2(full)/6-31G* geom

1,1
C,0.0420279647,0.6293969201,0.
O,0.0569440874,-0.6266016891,0.
H,-0.8908362225,1.193086321,0.
H,1.0190199632,1.1056700463,0.
H,-0.8359042279,-1.0623243749,0.



--link1--
%mem=5000000
%chk=filename
# mp2/6-31g* scf=direct

  cation: CH3O+ C3v 3A1    mp2(full)/6-31G* geom

1,3
C,0.,0.,-0.5538876559
O,0.,0.,0.7548542055
H,0.,-1.0628396673,-0.9051692361
H,-0.920446152,0.5314198337,-0.9051692361
H,0.920446152,0.5314198337,-0.9051692361



--link1--
%mem=5000000
%chk=filename
# mp2/6-31g* scf=direct

 cation:  CH3OH+  mp2(full)/6-31G* geom

1,2
C,-0.6584699515,0.0428678897,-0.0188990841
O,0.7134546688,-0.1290850968,-0.0114819022
H,-1.0843147559,-0.7732559361,-0.615367583
H,1.2330166472,0.7225088458,0.0316460342
H,-0.9247335991,-0.2290459918,1.0420145315
H,-0.9807859332,1.0552665184,-0.2530432608



--link1--
%mem=5000000
%chk=filename
# mp2/6-31g* scf=direct

  cation:  CH3F+ Cs   mp2(full)/6-31G* geom

1,2
C,0.0176606597,0.5961782768,0.
F,0.0569644631,-0.7170008936,0.
H,-1.1780163594,0.820060459,0.
H,0.2796861166,1.027938961,0.9771286634
H,0.2796861166,1.027938961,-0.9771286634



--link1--
%mem=5000000
%chk=filename
# mp2/6-31g* scf=direct

 cation: CH2S+   mp2(full)/6-31G* geom

1,2
C,0.,0.,-1.0062369204
S,0.,0.,0.5736648889
H,0.,-0.9384514638,-1.5706083501
H,0.,0.9384514638,-1.5706083501



--link1--
%mem=5000000
%chk=filename
# mp2/6-31g* scf=direct

 cation:  HSCH2+  Cs 1-A' mp2(full)/6-31G* geom

1,1
C,0.0449199106,1.0651823544,0.
S,0.0543292021,-0.5533391828,0.
H,-1.2762987794,-0.7642799111,0.
H,-0.8692119901,1.6536326075,0.
H,1.006724072,1.5729801024,0.



--link1--
%mem=5000000
%chk=filename
# mp2/6-31g* scf=direct

  cation:  CH3SH+  mp2(full)/6-31G* geom

1,2
C,-0.0465111567,1.1353209186,0.
S,-0.0550898371,-0.6508642732,0.
H,-1.0803965694,1.4774268707,0.
H,1.2778216777,-0.8582643998,0.
H,0.4815396127,1.4913701943,0.8915851529
H,0.4815396127,1.4913701943,-0.8915851529



--link1--
%mem=5000000
%chk=filename
# mp2/6-31g* scf=direct
 
 cation: CH3Cl+   mp2(full)/6-31G* geom
 
1 2
c1
cl1 c1 rcl1
h1 c1 rh1 cl1 ah1
h2 c1 rh2 cl1 ah2 h1 th2
h3 c1 rh2 cl1 ah2 h1 -th2

 rcl1=1.76344369
 rh1=1.10584465
 ah1=103.67135024
 rh2=1.08997842
 ah2=108.51759912
 th2=116.81560895



--link1--
%mem=5000000
%chk=filename
# mp2/6-31g* scf=direct

 cation: CH3CH2OH+ C1   mp2(full)/6-31G* geom

1,2
 C,0,-1.2775550963,-0.3544809274,0.1306482687
 C,0,0.1774595866,0.6258768995,-0.029147544
 O,0,1.1643400389,-0.2547231193,-0.2049534025
 H,0,-2.028032933,0.4338528575,0.1834549601
 H,0,1.6201197344,-0.4947205791,0.6373209244
 H,0,-1.2984546212,-0.956061475,-0.773524674
 H,0,-1.1309742654,-0.9127950561,1.051473667
 H,0,-0.0575130525,1.1350564569,-0.9644992379
 H,0,0.1807078847,1.204076918,0.8963972322



--link1--
%mem=5000000
%chk=filename
# mp2/6-31g* scf=direct

  cation:  ch3cho+ (acetaldehyde cation)  mp2/6-31G* geom

1,2
O,1.2083668227,0.3223977036,0.
C,0.,0.4642931468,0.
H,-0.3403841134,1.5190899729,0.
C,-0.9532702715,-0.6848258033,0.
H,-0.4329725517,-1.6407318404,0.
H,-1.5869781437,-0.567171911,0.8874520744
H,-1.5869781437,-0.567171911,-0.8874520744



--link1--
%mem=5000000
%chk=filename
# mp2/6-31g* scf=direct

  cation: CH3OF+   mp2(full)/6-31G* geom

1,2
C,0.2860176722,-1.0713786247,0.3035316024
O,0.2957902668,0.3725711371,0.3139026094
F,-0.5470934691,0.8356760755,-0.5805940453
H,1.0126426239,-1.3248651856,1.0746505134
H,-0.7452205698,-1.3742584211,0.5306888925
H,0.5739909998,-1.3742584211,-0.7124034885



--link1--
%mem=5000000
%chk=filename
# mp2/6-31g* scf=direct

 cation: c2h4s+   mp2(full)/6-31G* geom 
  (Thiooxirane+. cyclic CH2-S-CH2+ ring). C2v symm.

1,2
C,0.,-0.7337684886,-0.8092713328
S,0.,0.,0.8636067733
C,0.,0.7337684886,-0.8092713328
H,-0.9210465828,-1.2725197156,-1.0266130949
H,0.9210465828,-1.2725197156,-1.0266130949
H,0.9210465828,1.2725197156,-1.0266130949
H,-0.9210465828,1.2725197156,-1.0266130949



--link1--
%mem=5000000
%chk=filename
# mp2/6-31g* scf=direct guess=alter

 cation: NCCN+ D*h  mp2(full)/6-31G* alter B 11,13

1 2
c1
c2 c1 rc2
x1 c1 1.0 c2 90.0
x2 c2 1.0 c1 90.0 x1 0.0
n1 c1 rn1 x1 90.0 c2 180.0
n2 c2 rn1 x2 90.0 c1 180.0

rc2=1.3397
rn1=1.1847




11 13

--link1--
%mem=5000000
%chk=filename
# mp2/6-31g* scf=direct

 cation: C4H4O+ (furan cation) mp2(full)/6-31G* geom

1 2
o1
c1 o1 rc1
c2 o1 rc1 c1 ac2
c3 c1 rc3 o1 ac3 c2 0.0
c4 c2 rc3 o1 ac3 c1 0.0
h1 c1 rh1 o1 ah1 c2 180.0
h2 c2 rh1 o1 ah1 c1 180.0
h3 c3 rh3 c1 ah3 o1 180.0
h4 c4 rh3 c2 ah3 o1 180.0

rc1=1.34662106
ac2=106.66313874
rc3=1.41732016
ac3=110.61358416
rh1=1.08331891
ah1=116.10982986
rh3=1.08244764
ah3=125.29634789



--link1--
%mem=5000000
%chk=filename
# mp2/6-31g* scf=direct

cation: C4H4NH+ (Pyrrole, planar cyclic cation) mp2(full)/6-31G* geom. 
Doublet A2. C2v symm. mp2 = -209.217874 (HF = -208.567798). 
S**2 = 0.8117, 0.7510, (S**2,1) = 0.7787.

1 2
H
N,1,NH
X,2,1.,1,90.
X,2,NX,3,90.,1,180.,0
C,4,XC,2,90.,3,0.,0
C,4,XC,2,90.,3,180.,0
X,4,XY,5,90.,2,180.,0
C,7,YC,4,90.,5,0.,0
C,7,YC,4,90.,5,180.,0
H,5,CH2,2,H2CC,1,0.,0
H,6,CH2,2,H2CC,1,0.,0
H,8,CH3,5,H3CC,2,180.,0
H,9,CH3,6,H3CC,2,180.,0

NH=1.01807805
NX=0.78659839
XC=1.10768558
XY=1.36665188
YC=0.68721929
CH2=1.08317696
CH3=1.08178701
H2CC=121.67405063
H3CC=124.86839832



--link1--
%mem=9000000
%chk=g2tolphanb3g3
# mp2/6-31g* scf=direct

 cation: C6H5-OH+ (Phenol cation. Planar Cs) mp2(full)/6-31G*
 Doublet A" mp2 = -306.213147. (HF = -305.299273).
S**2 = 0.9465, after = 0.7736. (S**2,1) = 0.8837.
 
1,2
C           0.000000    0.924955    0.000000
C           1.245986    0.267360    0.000000
C           1.252098   -1.079683    0.000000
C           0.015597   -1.813970    0.000000
C          -1.218474   -1.158245    0.000000
C          -1.231635    0.192873    0.000000
O          -0.151247    2.244664    0.000000
H           0.710171    2.715464    0.000000
H           2.175002    0.831022    0.000000
H           2.185426   -1.634931    0.000000
H           0.054326   -2.899632    0.000000
H          -2.139405   -1.730961    0.000000
H          -2.156979    0.761984    0.000000


 
--link1--
%mem=9000000
%chk=g2tolphanb3g3
# mp2/6-31g* scf=direct

  cation: C6H5-NH2+ (Aniline cation)  mp2(full)/6-31G* geom 
Cs -> Planar C2v. mp2 = -286.397165. (HF = -285.506859).
S**2 = 1.0963, after = 0.8416. (S**2,1) = 0.9961.
 
1,2
C           0.000000    0.000000    0.922742
C           0.000000    1.238655    0.208740
C           0.000000   -1.238655    0.208740
C           0.000000    1.226066   -1.136641
C           0.000000   -1.226066   -1.136641
C           0.000000    0.000000   -1.831117
N           0.000000    0.000000    2.255882
H           0.000000   -0.863947    2.789041
H           0.000000    0.863947    2.789041
H           0.000000    2.155387   -1.696562
H           0.000000   -2.155387   -1.696562
H           0.000000    0.000000   -2.916405
H           0.000000    2.173114    0.762667
H           0.000000   -2.173114    0.762667



--link1--
%mem=5000000
%chk=filename
# mp2/6-31g* scf=direct

 cation: B2H4+  mp2(full)/6-31G* geom
 (nonplanar doubly bridged structure C2v symm)

1,2
B,0.,0.7687970007,-0.0473555764
B,0.,-0.7687970007,-0.0473555764
H,-1.008552778,0.,0.3108685383
H,1.008552778,0.,0.3108685383
H,0.,1.9403762853,-0.074090656
H,0.,-1.9403762853,-0.074090656



--link1--
%mem=5000000
%chk=filename
# mp2/6-31g* scf=direct

 cation: NH+  mp2(full)/6-31G* geom

1,2
N,0.,0.,0.1329531619
H,0.,0.,-0.9306721335



--link1--
%mem=5000000
%chk=filename
# mp2/6-31g* scf=direct

  cation: NH2+, 3-B2 C2v, mp2(full)/6-31G*

1,3
N,-0.0553363346,0.,-0.0142215302
H,-0.0554498966,0.,1.0191350901
H,0.4428042388,0.,-0.9195843784



--link1--
%mem=5000000
%chk=filename
# mp2/6-31g* scf=direct

 cation: N2H2+ trans    mp2(full)/6-31G* geom

1,2
N,-0.0000496854,0.,-0.5929089648
N,0.0000496854,0.,0.5929089648
H,0.8709666449,0.,-1.1697713576
H,-0.8709666449,0.,1.1697713576



--link1--
%mem=5000000
%chk=filename
# mp2/6-31g* scf=direct

 cation: N2H3+

1,1
N,0.0463911404,-0.5427054964,0.
N,0.0606244589,0.6967826901,0.
H,-0.8062257153,-1.13004319,0.
H,0.9624889467,-1.0171535653,0.
H,-0.9053724265,1.0686563996,0.



--link1--
%mem=5000000
%chk=filename
# mp2/6-31g* scf=direct

 cation: HOF+  mp2(full)/6-31G* geom

1,2
O,0.0673227233,0.6283692236,0.
F,0.0426313615,-0.6575446511,0.
H,-0.9222640401,0.890948071,0.



--link1--
%mem=5000000
%chk=filename
# mp2/6-31g* scf=direct

 cation: SIH2+   mp2(full)/6-31G* geom

1,2
Si,0.,0.,0.0923247129
H,0.,1.2808486794,-0.6462729904
H,0.,-1.2808486794,-0.6462729904



--link1--
%mem=5000000
%chk=filename
# mp2/6-31g* scf=direct

 cation: SiH3+ c3v mp2(full)/6-31G* geom

1 1
 Si,0,0.,0.,0.0000012831
 H,0,1.4648461218,0.,-0.000005988
 H,0,-0.7324230609,-1.2685939541,-0.000005988
 H,0,-0.7324230609,1.2685939541,-0.000005988



--link1--
%mem=5000000
%chk=filename
# mp2/6-31g* scf=direct

 cation: Si2H2+  mp2(full)/6-31G* geom 

1,2
Si,0.,-1.1073475367,-0.0530362334
Si,0.,1.1073475367,-0.0530362334
H,0.9843653163,0.,0.7425072681
H,-0.9843653163,0.,0.7425072681



--link1--
%mem=5000000
%chk=filename
# mp2/6-31g* scf=direct

  cation: Si2H4+ D2h 2B3u  mp2(full)/6-31G* geom

1,2
Si,0.,0.,1.1163446788
Si,0.,0.,-1.1163446788
H,0.,1.273347069,1.8491034362
H,0.,-1.273347069,1.8491034362
H,0.,1.273347069,-1.8491034362
H,0.,-1.273347069,-1.8491034362



--link1--
%mem=5000000
%chk=filename
# mp2/6-31g* scf=direct

 cation: Si2H5+   mp2(full)/6-31G* geom

1,1
Si,-0.0052047938,0.,-1.1673353499
Si,-0.0013982163,0.,1.2016963095
H,1.4435495916,0.,-1.4595664222
H,-0.6992294627,-1.2461070581,-1.5364138871
H,-0.6992294627,1.2461070581,-1.5364138871
H,0.0236757376,1.2233885911,2.0256703808
H,0.0236757376,-1.2233885911,2.0256703808



--link1--
%mem=5000000
%chk=filename
# mp2/6-31g* scf=direct

 cation: Si2H6+ D3d, 2Ag   mp2(full)/6-3G* geom

1,2
Si,0.,0.,1.3294415745
Si,0.,0.,-1.3294415745
H,0.,1.4553248734,1.5427750332
H,0.,-1.4553248734,-1.5427750332
H,-1.2603483111,-0.7276624367,1.5427750332
H,1.2603483111,-0.7276624367,1.5427750332
H,-1.2603483111,0.7276624367,-1.5427750332
H,1.2603483111,0.7276624367,-1.5427750332



--link1--
%mem=5000000
%chk=filename
# mp2/6-31g* scf=direct

   cation: H3+  d3h   mp2(full)/6-31G* geom

1 1
h1
h2 h1 0.85108753
h3 h1 0.85108753 h2 60.
 


