%mem=5000000
%chk=filename
# mp2/6-31g* scf=direct

  anion: Li-

-1 1
Li



--link1--
%mem=5000000
%chk=filename
# mp2/6-31g* scf=direct

  anion: B-

-1 3
B



--link1--
%mem=5000000
%chk=filename
# mp2/6-31g* scf=direct

  anion: Na-

-1 1
Na



--link1--
%mem=5000000
%chk=filename
# mp2/6-31g* scf=direct

  anion: Al-

-1 3
Al



--link1--
%mem=5000000
%chk=filename
# mp2/6-31g* scf=direct

 anion: CC-   mp2(full)/6-31G* geom

-1 2
 C,0,0.,0.,-0.641460285
 C,0,0.,0.,0.641460285



--link1--
%mem=5000000
%chk=filename
# mp2/6-31g* scf=direct

 anion: CCO-   mp2(full)/6-31G* geom

-1 2
 C,0,0.100367889,0.,0.
 C,0,1.4107625971,0.,0.
 O,0,-1.1333478646,0.,0.



--link1--
%mem=5000000
%chk=filename
# mp2/6-31g* scf=direct

 anion: CF2- 2B1    mp2(full)/6-31G*

-1 2
 C,0,-0.5435419482,0.,-0.4560858483
 F,0,-0.5358693709,0.,1.0065755538
 F,0,0.8982306697,0.,-0.7025183216



--link1--
%mem=5000000
%chk=filename
# mp2/6-31g* scf=direct

 anion: NCO-  mp2(full)/6-31G* geom

-1 1
 C,0,0.0695638429,0.,0.
 N,0,1.2793057491,0.,0.
 O,0,-1.1715654126,0.,0.



--link1--
%mem=5000000
%chk=filename
# mp2/6-31g* scf=direct

 anion: NO2-    mp2(full)/6-31G*

-1 1
 N,0,-0.4381816441,0.,-0.1871837965
 O,0,-0.2335077155,0.,1.0772791448
 O,0,0.6169166541,0.,-0.9134933229



--link1--
%mem=5000000
%chk=filename
# mp2/6-31g* scf=direct

  anion: O3- C2v    mp2(full)/6-31G*

-1,2
 O
 O,1,ro2
 O,1,ro2,2,ao3

 ro2=1.33689965
 ao3=114.74838481



--link1--
%mem=5000000
%chk=filename
# mp2/6-31g* scf=direct

 anion: OF-    mp2(full)/6-31G* geom

-1 1
 O,0,0.,0.,-0.793167565
 F,0,0.,0.,0.7050378355



--link1--
%mem=5000000
%chk=filename
# mp2/6-31g* scf=direct

  anion: SO2-    mp2(full)/6-31G* geom

-1,2
S,0.1814683628,0.3405123351,0.1142920476
O,-1.1221936418,0.359692212,-0.7067777938
O,0.7592569161,-1.0407168821,0.4781936986



--link1--
%mem=5000000
%chk=filename
# mp2/6-31g* scf=direct

  anion: S2O- Doublet A" Cs  mp2(full)/6-31G* geom
Optimized Energy = -870.321399 (HF = -869.876230). 
S**2 = 0.7692, 0.7503. (S**2,1) = 0.7532.
 
-1,2
S
S,1,SS
O,1,OS,2,OSS
 
SS=1.9797043
OS=1.52953136
OSS=117.1054732



--link1--
%mem=5000000
%chk=filename
# mp2/6-31g* scf=direct

  anion: C2H-    mp2(full)/6-31G* geom

-1,1
C,0.,0.,-0.4991711228
C,0.,0.,0.7615121997
H,0.,0.,-1.5740464611



--link1--
%mem=5000000
%chk=filename
# mp2/6-31g* scf=direct

   anion: c2h3- (H2CCH-)   mp2(full) geom 

-1,1
C,0.0669458572,0.,-0.5704790485
C,0.0667471358,0.,0.7890284708
H,1.0141134076,0.,-1.1388404504
H,-0.7973687498,0.,-1.2704082394
H,-1.018902616,0.,1.0979521558



--link1--
%mem=5000000
%chk=filename
# mp2/6-31g* scf=direct

  anion: C3H2- (H2CCC-) mp2(full)/6-31G* geom

-1,2
C,0.,0.,0.2310974151
C,0.,0.,-1.1433651402
C,0.,0.,1.4881776237
H,0.,0.9195899302,-1.7277296959
H,0.,-0.9195899302,-1.7277296959



--link1--
%mem=5000000
%chk=filename
# mp2/6-31g* scf=direct

  anion: C3H3- (H2CCCH-)   mp2(full)/6-31G* geom

-1,1
C,-0.1133810299,0.,-0.0222723084
C,1.2424691376,0.,0.0421771721
C,-1.3896428991,0.,0.0847827944
H,1.8186748761,-0.923262258,0.0689931846
H,1.8186748761,0.923262258,0.0689931846
H,-2.0740210037,0.,-0.7661123179



--link1--
%mem=5000000
%chk=filename
# mp2/6-31g* scf=direct

  anion: C3H3- (CH2CHCH2-, PROP-2-ENYL) C2v mp2(full)/6-31G* geom

-1,1
C,0.,0.,0.3753382896
H,0.,0.,1.4778027752
C,0.,-1.2767116789,-0.1769889268
C,0.,1.2767116789,-0.1769889268
H,0.,-2.1631462917,0.4511737732
H,0.,2.1631462917,0.4511737732
H,0.,-1.4384444383,-1.2541564685
H,0.,1.4384444383,-1.2541564685



--link1--
%mem=5000000
%chk=filename
# mp2/6-31g* scf=direct

  anion: HCO-     mp2(full)/6-31G* geom

-1,1
C,0.0789724809,0.6432381612,0.
O,0.0815789649,-0.6121825176,0.
H,-1.1264666046,1.0380311733,0.



--link1--
%mem=5000000
%chk=filename
# mp2/6-31g* scf=direct

 anion: HCF- 2A"  mp2(full)/6-31G*

-1 2
 C,0,-0.0762369036,0.,-0.8326207048
 F,0,-0.066658391,0.,0.6661256304
 H,0,1.0573469406,0.,-0.9994064443
 


--link1--
%mem=5000000
%chk=filename
# mp2/6-31g* scf=direct

  anion:  ch3o-   mp2(full)/6-13G* geom

-1,1
C,-0.0002032235,0.5299676278,0.
O,0.00030352,-0.7932329317,0.
H,-1.0218251721,1.0549633554,0.
H,0.5103081764,1.0555471658,0.8845755856
H,0.5103081764,1.0555471658,-0.8845755856



--link1--
%mem=5000000
%chk=filename
# mp2/6-31g* scf=direct

  anion: ch3s-   mp2(full)/6-31G*

-1,1
C,-0.0002005258,-1.1177989901,0.
S,0.0001293287,0.7077989961,0.
H,1.0152014988,-1.5395487795,0.
H,-0.5080338016,-1.5392206086,-0.8794325131
H,-0.5080338016,-1.5392206086,0.8794325131



--link1--
%mem=5000000
%chk=filename
# mp2/6-31g* scf=direct

  anion: CH2S-   mp2(full)/6-31G* geom

-1,2
C,-1.0943065239,0.,0.0013255629
S,0.6183048477,0.,-0.0165926731
H,-1.6635192101,-0.9211578147,0.1287646962
H,-1.6635192101,0.9211578147,0.1287646962



--link1--
%mem=5000000
%chk=filename
# mp2/6-31g* scf=direct

 anion: CH2CN-    mp2(full)/6-31G* geom

-1,1
C,0.1217925923,-1.2164576713,0.
C,0.,0.1763046607,0.
N,-0.0319948714,1.3756127217,0.
H,-0.253395727,-1.6941854941,0.9065766668
H,-0.253395727,-1.6941854941,-0.9065766668



--link1--
%mem=5000000
%chk=filename
# mp2/6-31g* scf=direct

 anion: CH2NC-   mp2(full)/6-31G*

-1,1
C,0.1230243594,-1.1779696582,0.
N,0.,0.2282203154,0.
C,0.0126571873,1.4283675482,0.
H,-0.4070446404,-1.5499647738,0.8889665329
H,-0.4070446404,-1.5499647738,-0.8889665329



--link1--
%mem=5000000
%chk=filename
# mp2/6-31g* scf=direct

 anion: CHCO-  mp2(full)/6-31G*

-1,1
C,0.,0.,-0.0098325707
C,0.,0.,-1.2559117315
O,0.,0.,1.2388571672
H,0.,0.,-2.3163915247



--link1--
%mem=5000000
%chk=filename
# mp2/6-31g* scf=direct

  anion: CH2CHO-   mp2(full)/6-31G* geom

-1,1
C,0.1775796107,-1.1602483424,0.2277825436
C,0.1777335261,0.2197671796,0.227979972
O,-0.4144828891,1.0550145931,-0.531659949
H,0.8240548438,0.6416513692,1.0570206101
H,-0.3936261107,-1.7266741823,-0.5049068211
H,0.7535555587,-1.7122069545,0.9665907098



--link1--
%mem=5000000
%chk=filename
# mp2/6-31g* scf=direct

   anion: CH3CO- Cs (H cis to Oxygen) mp2(full)/6-31G* geom

-1,1
C,-0.3286591896,1.085603722,-0.2421369091
C,-0.3334848637,-0.5449080525,-0.2456921842
O,0.6265195006,-0.9591437216,0.4615830021
H,0.4946089119,1.5030576549,0.3643989791
H,-0.2443306425,1.4629590504,-1.2744104735
H,-1.2895699544,1.4629590504,0.1443220378



--link1--
%mem=5000000
%chk=filename
# mp2/6-31g* scf=direct

  anion: ch3ch2o-   mp2(full)/6-31G* geom

-1,1
C,0.2687467977,-1.1390508649,0.2159147236
C,0.2613624401,0.4185499749,0.2099820333
O,-0.6882096799,0.9388379378,-0.5529167385
H,0.233685043,0.6914381495,1.3237950183
H,1.3430526075,0.6914381495,-0.0570231833
H,1.0572452551,-1.5814445753,0.8494047894
H,-0.708004661,-1.4945649431,0.5648541702
H,0.3990437685,-1.4945649431,-0.8130774283



--link1--
%mem=5000000
%chk=filename
# mp2/6-31g* scf=direct

 anion: CH3CH2S-     mp2(full)/6-31G* geom

 -1 1
 C,0,0.0734798808,-1.4416511118,0.7772210075
 C,0,0.0732521766,0.0862902203,0.7748125048
 S,0,-0.0844486433,0.798541404,-0.8932412371
 H,0,0.1693650694,-1.8641576373,1.7914303688
 H,0,-0.8534495047,-1.8135202393,0.3311130235
 H,0,0.9003815421,-1.8135202393,0.1653026621
 H,0,-0.7459737019,0.4233505004,1.4284619544
 H,0,1.0004625433,0.4233505004,1.2633507109



--link1--
%mem=5000000
%chk=filename
# mp2/6-31g* scf=direct

 anion:  LIH-  2Sigma   mp2(full)/6-31G*  geom

  -1 2
 Li,0,0.,0.,-0.4401299089
 H,0,0.,0.,1.3203897268



--link1--
%mem=5000000
%chk=filename
# mp2/6-31g* scf=direct

  anion: HNO-     mp2(full)/6-31G* geom

-1,2
N,0.0664793569,0.6544783145,0.
O,0.0621206559,-0.6901052205,0.
H,-0.9623207451,0.9394935622,0.



--link1--
%mem=5000000
%chk=filename
# mp2/6-31g* scf=direct

 anion: HOO-  1A'  mp2(full)/6-31G* geom

-1 1
 O,0,-0.0658837441,0.,-0.7058960267
 O,0,-0.0461781436,0.,0.8098046655
 H,0,0.8964951013,0.,-0.8312691111



