%mem=5000000
%chk=filename
# mp2/6-31g* scf=direct

  neutralIP:  helium 

0 1
He



--link1--
%mem=5000000
%chk=filename
# mp2/6-31g* scf=direct

  neutralIP:  neon 

0 1
Ne



--link1--
%mem=5000000
%chk=filename
# mp2/6-31g* scf=direct

  neutralIP:  argon 

0 1
Ar



--link1--
%mem=5000000
%chk=filename
# mp2/6-31g* scf=direct

 neutralIP B2F4 D2d  mp2(full)/6-31g* geom 
  MP2=-448.2123616

0 1
b1
b2 b1 rb2
f1 b2 rf1 b1 af1
f2 b2 rf1 b1 af1 f1 180.0
f3 b1 rf1 b2 af1 f1 -90.0
f4 b1 rf1 b2 af1 f3 180.0

 rb2=1.71325435
 rf1=1.32885073
 af1=121.46289252



--link1--
%mem=5000000
%chk=filename
# mp2/6-31g* scf=direct

  neutralIP:  neutralEA:  CF2  mp2(full)/6-31G*

0,1
C,0.,0.,0.6046425986
F,0.,1.0362120858,-0.2015475329
F,0.,-1.0362120858,-0.2015475329



--link1--
%mem=9000000
%chk=g2tolphanb3g3
# mp2/6-31g* scf=direct

 neutralIP C6H5-CH3 (Toluene. Cs)  mp2(full)/6-31G*
 (Plane of ring is perpendicular to symmetry plane). 
MP2(full)/6-31G* Geom. Optimized Energy = -270.662873. (HF = -269.738956).
 
0,1
C           -.009688     .912760     .000000
C           -.006861     .195983    1.201550
C           -.006861     .195983   -1.201550
C           -.006861   -1.198328    1.204953
C           -.006861   -1.198328   -1.204953
C           -.004765   -1.900643     .000000
C            .029546    2.417694     .000000
H           1.060813    2.786438     .000000
H           -.467164    2.824939    -.884877
H           -.467164    2.824939     .884877
H           -.009740   -1.736697    2.149654
H           -.009740   -1.736697   -2.149654
H           -.007487   -2.987617     .000000
H           -.012712     .736985    2.146302
H           -.012712     .736985   -2.146302
 


--link1--
%mem=5000000
%chk=filename
# mp2/6-31g* scf=direct

  neutralIP: CH3F  mp2(full)/6-31G*

0,1
C,0.,0.,-0.6354647547
F,0.,0.,0.7547497743
H,0.,1.0313867195,-0.9933198133
H,0.8932071002,-0.5156933598,-0.9933198133
H,-0.8932071002,-0.5156933598,-0.9933198133



--link1--
%mem=5000000
%chk=filename
# mp2/6-31g* scf=direct

 neutralIP: neutralEA: CH2S   mp2(full)/6-31G*

0,1
C,0.,0.,-1.0288634511
S,0.,0.,0.5867064775
H,0.,-0.9240426315,-1.6070614668
H,0.,0.9240426315,-1.6070614668



--link1--
%mem=5000000
%chk=filename
# mp2/6-31g* scf=direct

 neutralIP: CH2SH  C1 mp2(full)/6-31G* geom

0,2
C,0.1501678724,1.1321786049,-0.0004185993
S,-0.0487956645,-0.5830395807,0.0712161076
H,-0.2295003334,-0.7922102742,-1.2394278299
H,-0.231738287,1.699000651,-0.8364138427
H,0.3409620186,1.6287712855,0.9388955464



--link1--
%mem=5000000
%chk=filename
# mp2/6-31g* scf=direct

  neutralIP: CH3OF   mp2(full)/6-31G* geom

0,1
C,0.3047330125,-1.0130847658,0.3483019696
O,0.3253578202,0.4059703275,0.3718755925
F,-0.5996483702,0.7665408536,-0.685382613
H,1.0015583442,-1.2846608375,1.1447553419
H,-0.6951034059,-1.3917304351,0.5718477672
H,0.6591197566,-1.3917304351,-0.6129761498



--link1--
%mem=9000000
%chk=g2tolphanb3g3
# mp2/6-31g* scf=direct

 neutralIP: C6H5-OH (Phenol, Planar Cs) mp22(full)/6-31G* geom
Optimized Energy = -306.523449. (HF = -305.555880).
 
0,1
C            .000000     .937146     .000000
C          -1.205853     .234638     .000000
C          -1.192040   -1.160372     .000000
C            .016134   -1.854562     .000000
C           1.217058   -1.141800     .000000
C           1.215222     .249837     .000000
O            .062735    2.309303     .000000
H           -.845703    2.658414     .000000
H          -2.152618     .773041     .000000
H          -2.134427   -1.702203     .000000
H            .023244   -2.940753     .000000
H           2.165461   -1.673046     .000000
H           2.139030     .820810     .000000


 
--link1--
%mem=9000000
%chk=g2tolphanb3g3
# mp2/6-31g* scf=direct

 neutralIP: C6H5-NH2 (Aniline, Cs) mp2(full)/6-31G* geom
Optimized Energy = -286.683433. (HF = -285.729179).
 
0,1
C           -.006731     .934766     .000000
C            .006654     .221924    1.205747
C            .006654     .221924   -1.205747
C            .006654   -1.170616    1.202473
C            .006654   -1.170616   -1.202473
C            .010503   -1.877232     .000000
N            .064161    2.337919     .000000
H           -.340044    2.758633    -.830402
H           -.340044    2.758633     .830402
H            .010543   -1.705214    2.149344
H            .010543   -1.705214   -2.149344
H            .009977   -2.963545     .000000
H            .008788     .765189    2.149139
H            .008788     .765189   -2.149139


 
--link1--
%mem=5000000
%chk=filename
# mp2/6-31g* scf=direct

 neutralIP:  B2H4  mp2(full)/6-31G* geom
 (nonplanar doubly bridged structure C2v)

0,1
B,0.,0.7293442267,-0.1146731756
B,0.,-0.7293442267,-0.1146731756
H,-0.9031403146,0.,0.5487291353
H,0.9031403146,0.,0.5487291353
H,0.,1.8970299101,0.0246367429
H,0.,-1.8970299101,0.0246367429



--link1--
%mem=5000000
%chk=filename
# mp2/6-31g* scf=direct

 neutralIP: N2H2  mp2(full)/6-31G* geom

0,1
N,-0.0097503312,-0.6329723473,0.
N,0.0097503312,0.6329723473,0.
H,0.9846714361,-0.9239835266,0.
H,-0.9846714361,0.9239835266,0.



--link1--
%mem=5000000
%chk=filename
# mp2/6-31g* scf=direct

 neutralIP: N2H3  mp2(full)/6-31G*

0,2
N,0.0904471413,0.5962681249,-0.0144103261
N,-0.0088147792,-0.7461257086,0.1141899755
H,-0.1958496451,-1.0942959019,-0.832306088
H,0.056646305,1.070928324,0.878834993
H,-0.4322231945,1.072370664,-0.7449864505



--link1--
%mem=5000000
%chk=filename
# mp2/6-31g* scf=direct

 neutralIP: HOF  mp2(full)/6-31G* geom

0,1
O,0.061910443,0.7144527406,0.
F,0.0458681471,-0.7291372764,0.
H,-0.9080968683,0.8466135626,0.



--link1--
%mem=5000000
%chk=filename
# mp2/6-31g* scf=direct

 neutralIP: Si2H2   mp2(full)/6-31G* geom

0,1
Si,0.,-1.1009026308,-0.0510682558
Si,0.,1.1009026308,-0.0510682558
H,0.9902242649,0.,0.7149555806
H,-0.9902242649,0.,0.7149555806



--link1--
%mem=5000000
%chk=filename
# mp2/6-31g* scf=direct

 neutralIP: Si2H4 c2h 1Ag   mp2(full)/6-31G*

0,1
Si,-0.1108746746,-1.0761965087,0.
Si,0.1108746746,1.0761965087,0.
H,0.2099595758,-1.8297050864,-1.2353066113
H,0.2099595758,-1.8297050864,1.2353066113
H,-0.2099595758,1.8297050864,-1.2353066113
H,-0.2099595758,1.8297050864,1.2353066113



--link1--
%mem=5000000
%chk=filename
# mp2/6-31g* scf=direct

 neutralIP: Si2H5   mp2(full)/6-31G* geom

0,2
Si,-0.0375788473,0.,-1.1175158993
Si,-0.0322494952,0.,1.2081106692
H,1.3376450121,0.,-1.6851942595
H,-0.7495596893,-1.2086719113,-1.6063585938
H,-0.7495596893,1.2086719113,-1.6063585938
H,0.5695355805,1.2165144182,1.8147923343
H,0.5695355805,-1.2165144182,1.8147923343



--link1--
%mem=5000000
%chk=filename
# mp2/6-31g* scf=direct

 neutralEA: C2   mp2(full)/6-31G*  geom

0 1
 C,0,0.,0.,-0.6319140107
 C,0,0.,0.,0.6319140107



--link1--
%mem=5000000
%chk=filename
# mp2/6-31g* scf=direct

 neutralEA: CCO (triplet linear)  mp2(full)/6-31G* geom

0 3
 C,0,0.0558594438,0.,0.
 C,0,1.4320526657,0.,0.
 O,0,-1.1159340821,0.,0.



--link1--
%mem=5000000
%chk=filename
# mp2/6-31g* scf=direct guess=huckel

  neutralEA: NCO linear  mp2(full)/6-31G* geom
guess=huckel

0 2
 C,0,0.0264901054,0.,0.
 N,0,1.2795053207,0.,0.
 O,0,-1.1394347347,0.,0.



--link1--
%mem=5000000
%chk=filename
# mp2/6-31g* scf=direct

 neutralEA: OF    mp2(full)/6-31G*  geom

0 2
 O,0,0.,0.,-0.7113183144
 F,0,0.,0.,0.6322829461



--link1--
%mem=5000000
%chk=filename
# mp2/6-31g* scf=direct

 neutralIP: S2O  Cs  mp2(full)/6-31G* geom 
Optimized Energy = -870.287766 (HF = -869.799474).
 
0,1
S
S,1,SS
O,1,OS,2,OSS
 
SS=1.91668572
OS=1.50436263
OSS=117.89581352



--link1--
%mem=5000000
%chk=filename
# mp2/6-31g* scf=direct

 neutralEA: H2CCC singlet  mp2(full)/6-31G*

 0 1
 C,0,0.,0.,0.20355795
 C,0,0.,0.,-1.1301130266
 C,0,0.,0.,1.4949648386
 H,0,0.,0.9252252691,-1.7052292857
 H,0,0.,-0.9252252691,-1.7052292857



--link1--
%mem=5000000
%chk=filename
# mp2/6-31g* scf=direct

  neutralEA: H2CCCH  mp2(full)/6-31G*

0,2
C,-0.1322438927,0.,0.0000129694
C,1.2586372408,0.,0.0005314811
C,-1.3304812478,0.,-0.0007370826
H,1.8100452896,-0.9300842813,0.0007618465
H,1.8100452896,0.9300842813,0.0007618465
H,-2.3955631809,0.,-0.0003679003



--link1--
%mem=5000000
%chk=filename
# mp2/6-31g* scf=direct

 neutralEA: C3H5 (PROP-2-ENYL) C2V 2A2  mp2(full)/6-31G*

0,2
C,0.,0.,0.446010391
H,0.,0.,1.5340296482
C,0.,-1.2176251607,-0.1961982861
C,0.,1.2176251607,-0.1961982861
H,0.,-2.1512895521,0.3509033654
H,0.,2.1512895521,0.3509033654
H,0.,-1.2775733897,-1.2787596457
H,0.,1.2775733897,-1.2787596457



--link1--
%mem=5000000
%chk=filename
# mp2/6-31g* scf=direct

 neutralEA: HCF 1A'  mp2(full)/6-31G* geom

0 1
 C,0,-0.0664288556,0.,-0.7274514711
 F,0,-0.0702064084,0.,0.5912602882
 H,0,1.0304308094,0.,-0.9566337675



--link1--
%mem=5000000
%chk=filename
# mp2/6-31g* scf=direct

 neutralEA: h2ccn   mp2(full)/6-31G*

0,2
C,0.,0.,-1.2057217422
C,0.,0.,0.2067624966
N,0.,0.,1.3538528685
H,0.,0.9366773245,-1.7416073033
H,0.,-0.9366773245,-1.7416073033



--link1--
%mem=5000000
%chk=filename
# mp2/6-31g* scf=direct

 neutralEA: H2CNC   mp2(full)/6-31G*

0,2
C,0.,0.,-1.1311932866
N,0.,0.,0.2289633546
C,0.,0.,1.412412125
H,0.,0.9479354166,-1.6450282566
H,0.,-0.9479354166,-1.6450282566



--link1--
%mem=5000000
%chk=filename
# mp2/6-31g* scf=direct NOSYMM

  neutralEA: HCCO (nonlinear, planar) mp2(full)/6-31G*

0,2
C,-0.0000000001,-0.0170250928,-0.013117801
C,0.0000000369,0.0227252912,1.260165438
O,-0.0000000101,0.0328457422,-1.1884243161
H,-0.0000000247,-0.1131659618,2.3155593761



--link1--
%mem=5000000
%chk=filename
# mp2/6-31g* scf=direct

  neutralEA: H2CCHO mp2(full)/6-31G*

0,2
C,0.1987344334,0.3076160271,-0.2234484311
C,0.2167404492,-1.1479486805,-0.2436936191
O,-0.4732879176,0.9536286076,0.5321445349
H,-0.4071461115,-1.6858285362,0.457777539
H,0.8380317747,-1.6937273934,-0.9422468068
H,0.8625683818,0.7925229891,-0.9698347102



--link1--
%mem=5000000
%chk=filename
# mp2/6-31g* scf=direct

 neutralEA:  CH3CH2S    mp2(full)/6-31G* geom

0 2
C,-1.5936549389,-0.4151357374,0.0041550833
C,-0.4665274752,0.6072475075,0.0116667433
S,1.191291882,-0.1037518572,-0.0116875274
H,-2.5644240713,0.0884311032,0.0432652139
H,-1.5617913163,-1.0231136255,-0.9026139122
H,-1.5147166317,-1.0852980098,0.8623581867
H,-0.5523471109,1.3027431802,-0.8291081299
H,-0.5062964979,1.2245964462,0.9181681199



--link1--
%mem=5000000
%chk=filename
# mp2/6-31g* scf=direct

  neutralEA: HNO   mp2(full)/6-3G*

0,1
N,0.0663541179,0.5978726053,0.
O,0.0596281022,-0.6381268163,0.
H,-0.9415036436,0.9199062929,0.



--link1--
%mem=5000000
%chk=filename
# mp2/6-31g* scf=direct

 neutralEA: HOO 2A"    mp2(full)/6-31G*

0 2
 O,0,-0.0586332617,0.,-0.6089466927
 O,0,-0.0528395516,0.,0.71641592
 H,0,0.8917825062,0.,-0.8597538183



