%mem=360MB
%rwf=a,1900MB,b,1900MB,c,1900MB,d,1900MB,e,1900MB
# b3lyp/6-311+g(3df,2p) scf(direct,conver=5)

AlF //mp2(full)/6-31g* = -341.638663

0,1
F,0.,0.,-0.9871635578
Al,0.,0.,0.6834209246

--link1--
%mem=360MB
%rwf=a,1900MB,b,1900MB,c,1900MB,d,1900MB,e,1900MB
# b3lyp/6-311+g(3df,2p) scf(direct,conver=5)

al2cl6 cl2al<cl>alcl2 D2h mp2(full)/6-31g* = -3242.1443195

0 1
x1
x2 x1 1.0
al1 x1 ral1 x2 90.0
al2 x1 ral1 x2 90.0 al1 180.0
cl1 x1 rcl1 x2 90.0 al1 90.0
cl2 x1 rcl1 x2 90.0 cl1 180.0
cl3 al1 rcl3 al2 acl3 cl2 90.0
cl4 al1 rcl3 al2 acl3 cl3 180.0
cl5 al2 rcl3 al1 acl3 cl1 90.0
cl6 al2 rcl3 al1 acl3 cl5 180.0

ral1=1.5830914
 rcl1=1.61284425
 rcl3=2.07473298
 acl3=119.12710767

--link1--
%mem=360MB
%rwf=a,1900MB,b,1900MB,c,1900MB,d,1900MB,e,1900MB
# b3lyp/6-311+g(3df,2p) scf(direct,conver=5)

no2cl nitryl chloride janaf dhf = 12.13 kj/mol
// mp2(full)/6-31g* = -664.1821398

0 1
n1
cl1 n1 rcl1
o1 n1 ro1 cl1 ao1
o2 n1 ro1 cl1 ao1 o1 180.0

rcl1=1.90557522
 ro1=1.20644646
 ao1=113.42304987

--link1--
%mem=360MB
%rwf=a,1900MB,b,1900MB,c,1900MB,d,1900MB,e,1900MB
# b3lyp/6-311+g(3df,2p) scf(direct,conver=5)

NaF //mp2(full)/6-31g* = -261.4964528

0,1
F,0.,0.,-1.0436124688
Na,0.,0.,0.8538647472

--link1--
%mem=360MB
%rwf=a,1900MB,b,1900MB,c,1900MB,d,1900MB,e,1900MB
# b3lyp/6-311+g(3df,2p) scf(direct,conver=5)

ClFO3 //mp2(full)/6-31g* = -783.9759851

0,1
F,0.,0.,-1.5200065607
Cl,0.,0.,0.1593769188
O,-1.4097867409,0.0000000012,0.4571104762
O,0.7048933715,1.2209111309,0.4571104762
O,0.7048933694,-1.2209111322,0.4571104762

--link1--
%mem=360MB
%rwf=a,1900MB,b,1900MB,c,1900MB,d,1900MB,e,1900MB
# b3lyp/6-311+g(3df,2p) scf(direct,conver=5)

N2O3 //mp2(full)/6-31g* = -334.1559641

0,1
O,-0.8512571494,0.,-1.5674073137
N,-1.2731282561,0.,-0.4730896109
N,0.3695265654,0.,0.5493837197
O,0.3649844855,0.,1.7692994189
O,1.2769241432,0.,-0.2686494504

--link1--
%mem=360MB
%rwf=a,1900MB,b,1900MB,c,1900MB,d,1900MB,e,1900MB
# b3lyp/6-311+g(3df,2p) scf(direct,conver=5)

N2O4 //mp2(full)/6-31g* = -409.1722985

0,1
O,-0.6265387118,0.,-1.656748815
N,-0.7883595699,0.,-0.4551595831
N,0.7883595699,0.,0.4551595831
O,-1.7480559028,0.,0.2857760557
O,0.6265387118,0.,1.656748815
O,1.7480559028,0.,-0.2857760557

--link1--
%mem=360MB
%rwf=a,1900MB,b,1900MB,c,1900MB,d,1900MB,e,1900MB
# b3lyp/6-311+g(3df,2p) scf(direct,conver=5)

c6f6 // mp2(full)/6-31g* = -825.5613207

0 1
x1
x2 x1 1.0
c1 x1 rc1 x2 90.0
c2 x1 rc1 x2 90.0 c1 60.0
c3 x1 rc1 x2 90.0 c1 120.0
c4 x1 rc1 x2 90.0 c1 180.0
c5 x1 rc1 x2 90.0 c1 -60.0
c6 x1 rc1 x2 90.0 c1 -120.0
x3 c1 1.0 x1 90.0 x2 0.0
x4 c2 1.0 x1 90.0 x2 0.0
x5 c3 1.0 x1 90.0 x2 0.0
x6 c4 1.0 x1 90.0 x2 0.0
x7 c5 1.0 x1 90.0 x2 0.0
x8 c6 1.0 x1 90.0 x2 0.0
f1 c1 rf1 x3 90.0 x1 180.0
f2 c2 rf1 x4 90.0 x1 180.0
f3 c3 rf1 x5 90.0 x1 180.0
f4 c4 rf1 x6 90.0 x1 180.0
f5 c5 rf1 x7 90.0 x1 180.0
f6 c6 rf1 x8 90.0 x1 180.0

rc1=1.39125366
rf1=1.3397987

--link1--
%mem=360MB
%rwf=a,1900MB,b,1900MB,c,1900MB,d,1900MB,e,1900MB
# b3lyp/6-311+g(3df,2p) scf(direct,conver=5)

c6f5cl // mp2(full)/6-31g* = -1185.5915265

0 1
c1
c2 c1 rc2
x1 c1 1.0 c2 90.0
x2 c2 1.0 c1 90.0 x1 0.0
c3 c1 rc3 x1 90.0 c2 tc3
c4 c1 rc3 x1 90.0 c2 -tc3
c5 c3 rc5 c1 ac5 c4 0.0
c6 c4 rc5 c1 ac5 c3 0.0
cl1 c1 rcl1 x1 90.0 c2 180.0
f1 c2 rf1 x2 90.0 c1 180.0
f2 c3 rf2 c1 af2 c4 180.0
f3 c4 rf2 c1 af2 c3 180.0
f4 c5 rf4 c3 af4 c1 180.0
f5 c6 rf4 c4 af4 c1 180.0

rc2=2.79921936
 rc3=1.39465934
 tc3=59.30152184
 rc5=1.39064221
 ac5=120.87204265
 rcl1=1.71282896
 rf1=1.33901049
 rf2=1.33949869
 af2=120.48497803
 rf4=1.33963068
 af4=120.14015572

--link1--
%mem=360MB
%rwf=a,1900MB,b,1900MB,c,1900MB,d,1900MB,e,1900MB
# b3lyp/6-311+g(3df,2p) scf(direct,conver=5)

COCl2 //mp2(full)/6-31g* = -1032.2761233

0,1
Cl,-1.4467688747,0.,-0.4825736534
C,0.,0.,0.4897145994
Cl,1.4467688747,0.,-0.4825736534
O,0.,0.,1.6836520775

--link1--
%mem=360MB
%rwf=a,1900MB,b,1900MB,c,1900MB,d,1900MB,e,1900MB
# b3lyp/6-311+g(3df,2p) scf(direct,conver=5)

LiNa //mp2(full)/6-31g* = -169.2953698

0,1
Li,2.3321814465,0.,0.
Na,-0.6360494854,0.,0.

--link1--
%mem=360MB
%rwf=a,1900MB,b,1900MB,c,1900MB,d,1900MB,e,1900MB
# b3lyp/6-311+g(3df,2p) scf(direct,conver=5)

BeF2 //mp2(full)/6-31g* = -214.0725842

0,1
F,-1.3862326344,0.,0.
Be,0.,0.,0.
F,1.3862326344,0.,0.

--link1--
%mem=360MB
%rwf=a,1900MB,b,1900MB,c,1900MB,d,1900MB,e,1900MB
# b3lyp/6-311+g(3df,2p) scf(direct,conver=5)

ClCN cyanogen chloride pedley dhf = 137.8 kj/mol
//mp2(full)/6-31g* = -552.1948334

0 1
c1
n1 c1 rn1
x1 c1 1.0 n1 90.0
cl1 c1 rcl1 x1 90.0 n1 180.0

rn1=1.18313154
rcl1=1.63569431

--link1--
%mem=360MB
%rwf=a,1900MB,b,1900MB,c,1900MB,d,1900MB,e,1900MB
# b3lyp/6-311+g(3df,2p) scf(direct,conver=5)

MgCl2 //mp2(full)/6-31g* = -1119.0354443

0,1
Mg,0.,0.,0.
Cl,-2.1823050142,0.0000300317,0.
Cl,2.1823050142,-0.0000300317,0.

--link1--
%mem=360MB
%rwf=a,1900MB,b,1900MB,c,1900MB,d,1900MB,e,1900MB
# b3lyp/6-311+g(3df,2p) scf(direct,conver=5)

cf3br //mp2(full)/6-31g* = -2909.2529308

0 1
c1
br1 c1 rbr1
f1 c1 rf1 br1 af1
f2 c1 rf1 br1 af1 f1 120.0
f3 c1 rf1 br1 af1 f1 -120.0

rbr1=1.9211872
 rf1=1.33396119
 af1=110.16063658

--link1--
%mem=360MB
%rwf=a,1900MB,b,1900MB,c,1900MB,d,1900MB,e,1900MB
# b3lyp/6-311+g(3df,2p) scf(direct,conver=5)

ccl3br //mp2(full)/6-31g* = -3989.2555576

0 1
c1
br1 c1 rbr1
cl1 c1 rcl1 br1 acl1
cl2 c1 rcl1 br1 acl1 cl1 120.0
cl3 c1 rcl1 br1 acl1 cl1 -120.0

rbr1=1.95147518
 rcl1=1.7660046
 acl1=109.18797902

--link1--
%mem=360MB
%rwf=a,1900MB,b,1900MB,c,1900MB,d,1900MB,e,1900MB
# b3lyp/6-311+g(3df,2p) scf(direct,conver=5)

C2H3Br (vinyl bromide) //mp2(full)/6-31g* = -2650.1385794

0,1
Br,0.6859533459,0.0457236694,0.2324254027
C,-0.9546110814,-0.4811180303,-0.5418344266
C,-2.0550041924,0.2659026012,-0.4855682603
H,-0.9034969059,-1.4460728749,-1.0310476374
H,-2.079360162,1.2286886303,0.0106369955
H,-2.9678183997,-0.0916516168,-0.9500623206

--link1--
%mem=360MB
%rwf=a,1900MB,b,1900MB,c,1900MB,d,1900MB,e,1900MB
# b3lyp/6-311+g(3df,2p) scf(direct,conver=5)

c2h5br //mp2(full)/6-31g* = -2651.3474955

0 1
c1
c2 c1 rc2
br1 c2 rbr1 c1 abr1
h1 c1 rh1 c2 ah1 br1 180.0
h2 c1 rh2 c2 ah2 h1 th2
h3 c1 rh2 c2 ah2 h1 -th2
h4 c2 rh4 c1 ah4 br1 th4
h5 c2 rh4 c1 ah4 br1 -th4

rc2=1.51355433
 rbr1=1.9542734
 abr1=111.32755225
 rh1=1.0947548
 ah1=109.30416868
 rh2=1.09138393
 ah2=111.01270083
 th2=119.64783606
 rh4=1.08938202
 ah4=112.18814666
 th4=118.32515377

--link1--
%mem=360MB
%rwf=a,1900MB,b,1900MB,c,1900MB,d,1900MB,e,1900MB
# b3lyp/6-311+g(3df,2p) scf(direct,conver=5)

C3H7Br (2-bromo-propane) //mp2(full)/6-31g* = -2690.523598

0,1
Br,-0.2828666349,-0.4899393835,-0.8337387575
C,0.0968607459,0.1677677331,0.9830605224
C,1.5978535556,0.2367325691,1.1835528586
C,-0.593910359,1.5021480553,1.1835528586
H,-0.1988258487,2.2471871786,0.4887470752
H,-1.671420004,1.4211283164,1.0292997945
H,-0.4135254581,1.8507371285,2.2061597097
H,2.0455341081,0.9514053534,0.4887470752
H,2.0664432261,-0.7369280257,1.0292997945
H,1.8095480981,0.5672450124,2.2061597097
H,-0.3422455536,-0.5927866875,1.6314459153

--link1--
%mem=360MB
%rwf=a,1900MB,b,1900MB,c,1900MB,d,1900MB,e,1900MB
# b3lyp/6-311+g(3df,2p) scf(direct,conver=5)

c6h5br bromobenzene pedley DHf = 105.4 kj/mol
//mp2(full)/6-31g* = -2803.3347211

0 1
x1
x2 x1 1.0
c1 x1 rc1 x2 90.0
c2 x1 rc1 x2 90.0 c1 180.0
c3 x1 rc3 x2 90.0 c1 tc3
c4 x1 rc3 x2 90.0 c1 -tc3
c5 x1 rc5 x2 90.0 c1 tc5
c6 x1 rc5 x2 90.0 c1 -tc5
x3 c1 1.0 x1 90.0 x2 0.0
x4 c2 1.0 x1 90.0 x2 0.0
br1 c1 rbr1 x3 90.0 x1 180.0
h1 c2 rh1 x4 90.0 x1 180.0
h2 c3 rh2 c1 ah2 c5 180.0
h3 c4 rh2 c1 ah2 c6 180.0
h4 c5 rh4 c3 ah4 c2 180.0
h5 c6 rh4 c4 ah4 c2 180.0

rc1=1.38889285
 rc3=1.40437379
 tc3=59.83603753
 rc5=1.38922941
 tc5=119.72767501
 rbr1=1.8953852
 rh1=1.08652746
 rh2=1.08565818
 ah2=120.17429926
 rh4=1.08690238
 ah4=119.34115793

--link1--
%mem=360MB
%rwf=a,1900MB,b,1900MB,c,1900MB,d,1900MB,e,1900MB
# b3lyp/6-311+g(3df,2p) scf(direct,conver=5)

c6h13br 1-Bromohexane Pedley DHF = -148.1 kj/mol
//mp2(full)/6-31g* = -2808.030715

0 1
c1
c2 c1 rc2
c3 c2 rc3 c1 ac3
c4 c3 rc4 c2 ac4 c1 180.0
c5 c4 rc5 c3 ac5 c2 180.0
c6 c5 rc6 c4 ac6 c3 180.0
br1 c1 rbr1 c2 abr1 c3 180.0
h1 c6 rh1 c5 ah1 c4 180.0
h2 c6 rh2 c5 ah2 h1 th2
h3 c6 rh2 c5 ah2 h1 -th2
h4 c1 rh4 c2 ah4 br1 th4
h5 c1 rh4 c2 ah4 br1 -th4
h6 c2 rh6 c3 ah6 c1 th6
h7 c2 rh6 c3 ah6 c1 -th6
h8 c3 rh8 c4 ah8 c2 th8
h9 c3 rh8 c4 ah8 c2 -th8
h10 c4 rh10 c5 ah10 c3 th10
h11 c4 rh10 c5 ah10 c3 -th10
h12 c5 rh12 c6 ah12 c4 th12
h13 c5 rh12 c6 ah12 c4 -th12

rc2=1.51496375
 rc3=1.52782917
 ac3=111.15166907
 rc4=1.52587828
 ac4=112.53009288
 rc5=1.5252089
 ac5=113.10328125
 rc6=1.5247096
 ac6=112.68760204
 rbr1=1.95445821
 abr1=111.73588387
 rh1=1.0934913
 ah1=111.44550691
 rh2=1.09400517
 ah2=110.86688986
 th2=120.17111919
 rh4=1.09054584
 ah4=111.87012171
 th4=118.56655686
 rh6=1.09529333
 ah6=109.91213737
 th6=121.2971699
 rh8=1.09785169
 ah8=109.26927969
 th8=121.93256292
 rh10=1.09785219
 ah10=109.30522433
 th10=121.99974269
 rh12=1.09684828
 ah12=109.64394651
 th12=121.80691658

--link1--
%mem=360MB
%rwf=a,1900MB,b,1900MB,c,1900MB,d,1900MB,e,1900MB
# b3lyp/6-311+g(3df,2p) scf(direct,conver=5)

c3h6br2 1,2-Dibromopropane trans mp2(full)/6-31g* = -5262.3663278

0 1
c1
c2 c1 rc2
c3 c2 rc3 c1 ac3
br1 c1 rbr1 c2 abr1 c3 tbr1
br2 c2 rbr2 c1 abr2 c3 tbr2
h1 c1 rh1 c2 ah1 br1 th1
h2 c1 rh2 c2 ah2 br1 th2
h3 c2 rh3 c1 ah3 c3 th3
h4 c3 rh4 c2 ah4 c1 th4
h5 c3 rh5 c2 ah5 h4 th5
h6 c3 rh6 c2 ah6 h4 th6

rc2=1.51434927
 rc3=1.51458038
 ac3=114.67789624
 rbr1=1.95440914
 abr1=110.63496248
 tbr1=66.66902042
 rbr2=1.96843077
 abr2=105.80963644
 tbr2=120.61837998
 rh1=1.08848733
 ah1=111.71129856
 th1=117.84854538
 rh2=1.09023664
 ah2=111.33897003
 th2=-118.80594977
 rh3=1.09119162
 ah3=110.16652485
 th3=-126.7288846
 rh4=1.09123818
 ah4=110.6095421
 th4=176.95680027
 rh5=1.09284637
 ah5=109.66929746
 th5=119.82358857
 rh6=1.09283225
 ah6=110.50728257
 th6=-120.18242276

--link1--
%mem=360MB
%rwf=a,1900MB,b,1900MB,c,1900MB,d,1900MB,e,1900MB
# b3lyp/6-311+g(3df,2p) scf(direct,conver=5)

trans 1,2-dibromocyclopentane axial //mp2(full)/6-31g* = -5339.5402227

0 1
c1
x1 c1 1.0
x2 c1 1.0 x1 90.0
x3 c1 1.0 x1 90.0 x2 90.0
x4 c1 rx4 x1 90.0 x3 90.0
x5 x4 1.0 c1 90.0 x1 tx5
c2 x4 rc2 x5 90.0 c1 -90.0
c3 x4 rc2 x5 90.0 c2 180.0
c4 c1 rc4 x1 90.0 x2 tc4
c5 c1 rc4 x1 90.0 x2 -tc4
br1 c2 rbr1 c3 abr1 c4 tbr1
br2 c3 rbr1 c2 abr1 c5 tbr1
h1 c1 rh1 x2 ah1 c5 th1
h2 c1 rh1 x2 ah1 c4 th1
h3 c4 rh3 c1 ah3 c2 th3
h4 c5 rh3 c1 ah3 c3 th3
h5 c4 rh5 c1 ah5 c2 th5
h6 c5 rh5 c1 ah5 c3 th5
h7 c2 rh7 c3 ah7 br1 th7
h8 c3 rh7 c2 ah7 br2 th7

rx4=2.31911925
 tx5=-23.3691714
 rc2=0.76007579
 rc4=1.54507068
 tc4=-126.82180023
 rbr1=1.96808155
 abr1=107.43736931
 tbr1=-117.27309534
 rh1=1.09255404
 ah1=53.60820578
 th1=89.47796955
 rh3=1.09174163
 ah3=113.31669781
 th3=122.90434068
 rh5=1.09447215
 ah5=110.6584471
 th5=-116.27808606
 rh7=1.08968679
 ah7=114.2856989
 th7=-116.28677823

--link1--
%mem=360MB
%rwf=a,1900MB,b,1900MB,c,1900MB,d,1900MB,e,1900MB
# b3lyp/6-311+g(3df,2p) scf(direct,conver=5)

CHF2Br //mp2(full)/6-31g* = -2810.2150982

0,1
Br,0.8352923592,0.4521890748,-0.1467394642
C,-0.7735648093,-0.6177612628,-0.1640239428
F,-0.797062574,-1.404120939,0.9292916082
F,-1.8482092679,0.1935859928,-0.1307448544
H,-0.7863971405,-1.2252355231,-1.0668958797

--link1--
%mem=360MB
%rwf=a,1900MB,b,1900MB,c,1900MB,d,1900MB,e,1900MB
# b3lyp/6-311+g(3df,2p) scf(direct,conver=5)

cobr2 carbonic dibromide pedley dhf = -113.5 kj/mol
//mp2(full)/6-31g* = -5257.8809064

0 1
c1
o1 c1 ro1
br1 c1 rbr1 o1 abr1
br2 c1 rbr1 o1 abr1 br1 180.0

ro1=1.1903354
rbr1=1.91981069
abr1=123.60612383

--link1--
%mem=360MB
%rwf=a,1900MB,b,1900MB,c,1900MB,d,1900MB,e,1900MB
# b3lyp/6-311+g(3df,2p) scf(direct,conver=5)

bromine

0 2
br

