$molecule
 -1  1
 N           0.00058000       -0.47868000       -0.42490000
 P          -1.45870000       -0.08537000        0.24569000
 P           1.45957000       -0.08560000        0.24644000
 C           2.00204000        1.65873000       -0.47851000
 O           1.45152000        0.28087000        1.78833000
 C           2.74759000       -1.44506000       -0.20874000
 F           4.05779000       -0.97722000        0.18384000
 F           2.76164000       -1.65276000       -1.63460000
 F           2.47266000       -2.68069000        0.44219000
 C          -2.74669000       -1.44461000       -0.21019000
 C          -2.00043000        1.65909000       -0.47952000
 O          -1.45142000        0.28109000        1.78758000
 F          -4.05702000       -0.97663000        0.18177000
 F          -2.47222000       -2.68029000        0.44085000
 F          -2.76008000       -1.65229000       -1.63604000
 O           1.40125000        2.57801000        0.22331000
 O          -1.39977000        2.57822000        0.22262000
 C           2.93212000        1.94223000       -1.64089000
 C          -2.92986000        1.94285000       -1.64236000
 H           3.93749000        1.48953000       -1.43201000
 H           3.03345000        3.03729000       -1.80789000
 H           2.55391000        1.43852000       -2.56879000
 H          -2.55160000        1.43871000       -2.56999000
 H          -3.03054000        3.03793000       -1.80961000
 H          -3.93558000        1.49078000       -1.43374000
$end


$rem
     jobtype = opt
    exchange = b3lyp
       basis = 6-31+g*
  mem_static = 100
   mem_total = 1200
$end


@@@


$molecule
 read
$end


$rem
     jobtype = freq
    exchange = b3lyp
       basis = 6-31+g*
  mem_static = 100
   mem_total = 1200
$end

